pr8_2
0 101 12 78 44 142 136 135 16 103 25 83 116 86 7 81 90 6 69 46 141 96 130 64 59 2 2 2 134 0 0 0 0 0 0 0 0 0 89 2 98 34 85 32 62 127 107 145 138 111 132 133 118 125 14 17 31 115 13 21 66 108 9 123 23 56 47 30 33 0 106 15 40 109 55 28 114 68 39 58 95 43 27 147 74 54 124 75 72 129 63 105 65 99 91 57 26 3 1 1 1 1 1 19 42 113 50 38 37 5 5 5 5 52 71 128 80 5 5 104 22 49 119 79 24 137 5 5 92 122 110 143 117 41 94 100 112 3 3 3 67 84 11 131 93 126 148 139 144 8 10 82 29 73 1 3 3 3 3 3 3 3 3 3 3 3 88 3 53 35 60 97 51 61 140 20 70 77 48 149 76 120 102 18 146 36 4 4 4 121 87 45 0 0 0 0 0 0 0 0 0 0 0 0 0 0 0 0 0 0 0 0 0 0 0 0 0 0 0 0 0 0 0 0 0 0 0 0 0 0 0